Instance name:    bar-n100-5
Authors:          PDPTW Solver
Date:             2025-11-20
Reference:        LNS with SA/RTR
Solution
Route 1 : 37 87 45 95 22 30 80 72 41 91 19 69 1 2 52 51 8 58
Route 2 : 44 27 18 68 77 12 62 94 29 6 56 79 20 70
Route 3 : 15 31 65 11 81 26 76 61 42 92 23 73 32 82
Route 4 : 28 78 25 75 47 40 90 49 97 35 85 17 67 33 99 83
Route 5 : 3 53 48 50 100 98 5 10 55 60 38 88 14 64 21 71 39 89
Route 6 : 13 63 36 34 84 86 24 46 96 74 43 4 54 93 16 66
Route 7 : 9 59 7 57
